c ---- [ banner ] ------------------------------------------------------------
c
c Kissat SAT Solver
c 
c Copyright (c) 2021-2022 Armin Biere University of Freiburg
c Copyright (c) 2019-2021 Armin Biere Johannes Kepler University Linz
c 
c Version 3.0.0 97917ddf2b12adc6f63c7b2a5a403a1ee7d81836
c /share/apps/gcc/7.3/bin/gcc -W -O -DNDEBUG 
c Mon Jul 25 20:22:07 +08 2022 Linux sm101 2.6.32-131.0.15.el6.x86_64 x86_64
c
c ---- [ parsing ] -----------------------------------------------------------
c
c opened and reading DIMACS file:
c
c   /home/vkondratev/data/Multipliers_2022/testing/testing_snakes/cnfs/s-n-b_5_13.cnf
c
c parsed 'p cnf 455 2088' header
c closing input after reading 33172 bytes (32 KB)
c finished parsing after 0.00 seconds
c
c ---- [ solving ] -----------------------------------------------------------
c
c  seconds switched rate      trail    variables
c         MB reductions conflicts glue     remaining
c          level restarts redundant irredundant
c
c *  0.00  1 0 0 0  0 0   0   0 0% 0 2088 455 100%
c {  0.00  1 0 0 0  0 0   0   0 0% 0 2088 455 100%
c }  0.01  1 39 0 0 164 9 777 449 35% 6 2042 455 100%
c 1  0.01  1 39 0 0 164 9 777 449 35% 6 2042 455 100%
c
c ---- [ result ] ------------------------------------------------------------
c
s SATISFIABLE
v 1 2 -3 4 5 6 -7 -8 9 10 -11 -12 -13 14 15 -16 -17 -18 -19 20 -21 22 -23 -24
v 25 -26 27 28 -29 30 31 32 33 -34 35 36 -37 38 -39 40 41 -42 43 -44 -45 -46
v -47 48 -49 -50 -51 -52 53 54 -55 -56 57 58 59 -60 -61 62 -63 64 -65 -66 67
v -68 -69 -70 71 -72 -73 -74 -75 -76 -77 -78 79 -80 -81 82 -83 -84 -85 -86 -87
v 88 -89 -90 91 -92 -93 -94 -95 -96 97 -98 -99 -100 -101 -102 -103 -104 105
v 106 -107 -108 -109 -110 -111 -112 -113 114 -115 -116 117 -118 -119 -120 -121
v -122 123 -124 -125 126 127 -128 -129 -130 131 -132 -133 134 -135 136 137
v -138 139 -140 -141 142 -143 144 -145 146 147 -148 149 -150 151 -152 -153 154
v -155 -156 157 158 -159 -160 -161 162 163 164 -165 166 167 168 169 -170 171
v -172 173 174 -175 176 -177 178 -179 -180 181 182 183 -184 -185 186 187 188
v 189 -190 -191 192 193 194 -195 -196 -197 198 199 -200 201 202 -203 -204 -205
v 206 207 208 -209 -210 211 -212 213 -214 -215 216 -217 218 219 -220 -221 -222
v 223 224 -225 -226 227 228 229 -230 -231 232 -233 -234 235 236 237 -238 -239
v 240 241 242 243 -244 245 246 -247 248 -249 250 251 -252 253 254 255 -256
v -257 258 259 260 -261 262 263 264 265 266 -267 -268 -269 270 271 272 -273
v -274 275 -276 277 -278 -279 280 -281 282 283 -284 285 -286 -287 288 -289 290
v -291 -292 293 294 295 296 -297 298 299 300 301 302 303 304 305 306 -307 -308
v 309 -310 311 -312 -313 314 315 316 317 -318 319 320 -321 322 -323 324 325
v -326 327 328 329 330 -331 -332 333 334 335 -336 -337 338 -339 340 341 -342
v 343 -344 345 346 347 348 -349 350 -351 352 -353 354 -355 356 357 -358 359
v -360 361 362 -363 364 365 366 -367 -368 369 370 -371 -372 -373 374 375 -376
v -377 378 379 380 -381 382 383 384 385 -386 387 388 -389 390 391 392 393 -394
v 395 396 -397 398 -399 400 -401 402 403 -404 -405 -406 407 408 409 -410 411
v 412 413 414 -415 416 417 418 419 420 421 -422 423 424 425 -426 -427 428 429
v 430 -431 -432 -433 434 435 -436 437 -438 439 440 -441 442 -443 -444 445 446
v 447 -448 -449 450 451 -452 -453 -454 455 0
c
c ---- [ profiling ] ---------------------------------------------------------
c
c           0.01   70.00 %  focused
c           0.01   70.00 %  search
c           0.00    0.00 %  simplify
c =============================================
c           0.01  100.00 %  total
c
c ---- [ statistics ] --------------------------------------------------------
c
c conflicts:                              777            35324.60 per second
c decisions:                             5276                6.79 per conflict
c propagations:                         40611          1846290    per second
c restarts:                               164                4.74 interval
c
c ---- [ resources ] ---------------------------------------------------------
c
c maximum-resident-set-size:          1474560 bytes          1 MB
c process-time:                                              0.01 seconds
c
c ---- [ shutting down ] -----------------------------------------------------
c
c exit 10
